\ Model qkp
\ LP format - for model browsing. Use MPS format to capture full model detail.
Maximize
  35 x_1 + 6 x_3 + 32 x_4 + 36 x_5 + 28 x_6 + 15 x_7 + 42 x_9 + 12 x_10
   + 29 x_12 + 11 x_13 + 18 x_15 + 36 x_16 + 9 x_17 + 46 x_19 + 25 x_20
   + 48 x_21 + 16 x_22 + 36 x_24 + 32 x_25 + 6 x_27 + 12 x_29 + 38 x_30
   + 3 x_33 + 16 x_34 + 9 x_35 + 37 x_36 + 41 x_37 + 24 x_38 + 18 x_39
   + 12 x_40 + 25 x_43 + 49 x_44 + 18 x_45 + 8 x_46 + 10 x_47 + 50 x_48
   + 22 x_49 + 8 x_50 + [ 28 x_1 * x_2 + 164 x_1 * x_3 + 60 x_1 * x_4
   + 124 x_1 * x_5 + 140 x_1 * x_6 + 32 x_1 * x_8 + 136 x_1 * x_9
   + 24 x_1 * x_10 + 68 x_1 * x_11 + 24 x_1 * x_12 + 168 x_1 * x_13
   + 88 x_1 * x_14 + 36 x_1 * x_15 + 48 x_1 * x_17 + 152 x_1 * x_18
   + 76 x_1 * x_19 + 64 x_1 * x_21 + 20 x_1 * x_22 + 136 x_1 * x_23
   + 128 x_1 * x_24 + 120 x_1 * x_25 + 184 x_1 * x_26 + 76 x_1 * x_27
   + 84 x_1 * x_28 + 124 x_1 * x_29 + 184 x_1 * x_30 + 172 x_1 * x_32
   + 68 x_1 * x_33 + 128 x_1 * x_34 + 164 x_1 * x_35 + 88 x_1 * x_37
   + 16 x_1 * x_39 + 176 x_1 * x_40 + 172 x_1 * x_42 + 60 x_1 * x_44
   + 140 x_1 * x_46 + 116 x_1 * x_49 + 16 x_1 * x_50 + 172 x_2 * x_3
   + 24 x_2 * x_4 + 196 x_2 * x_6 + 36 x_2 * x_8 + 72 x_2 * x_9
   + 8 x_2 * x_11 + 192 x_2 * x_12 + 188 x_2 * x_15 + 104 x_2 * x_16
   + 192 x_2 * x_17 + 40 x_2 * x_18 + 72 x_2 * x_19 + 116 x_2 * x_20
   + 112 x_2 * x_21 + 4 x_2 * x_22 + 4 x_2 * x_25 + 120 x_2 * x_26
   + 160 x_2 * x_27 + 172 x_2 * x_28 + 4 x_2 * x_30 + 84 x_2 * x_31
   + 12 x_2 * x_34 + 56 x_2 * x_35 + 200 x_2 * x_37 + 72 x_2 * x_38
   + 64 x_2 * x_39 + 112 x_2 * x_40 + 24 x_2 * x_42 + 192 x_2 * x_43
   + 48 x_2 * x_45 + 124 x_2 * x_46 + 84 x_2 * x_47 + 168 x_2 * x_48
   + 8 x_2 * x_50 + 88 x_3 * x_4 + 32 x_3 * x_6 + 176 x_3 * x_7
   + 4 x_3 * x_8 + 176 x_3 * x_9 + 8 x_3 * x_10 + 120 x_3 * x_11
   + 40 x_3 * x_12 + 192 x_3 * x_14 + 128 x_3 * x_15 + 184 x_3 * x_16
   + 132 x_3 * x_17 + 104 x_3 * x_18 + 44 x_3 * x_19 + 132 x_3 * x_20
   + 128 x_3 * x_21 + 104 x_3 * x_22 + 16 x_3 * x_23 + 196 x_3 * x_26
   + 128 x_3 * x_27 + 64 x_3 * x_28 + 96 x_3 * x_29 + 40 x_3 * x_31
   + 124 x_3 * x_33 + 172 x_3 * x_35 + 20 x_3 * x_36 + 148 x_3 * x_37
   + 28 x_3 * x_38 + 148 x_3 * x_39 + 12 x_3 * x_40 + 124 x_3 * x_41
   + 36 x_3 * x_42 + 60 x_3 * x_43 + 64 x_3 * x_44 + 136 x_3 * x_45
   + 132 x_3 * x_46 + 12 x_3 * x_47 + 156 x_3 * x_48 + 52 x_3 * x_50
   + 32 x_4 * x_5 + 196 x_4 * x_6 + 92 x_4 * x_7 + 100 x_4 * x_8
   + 76 x_4 * x_9 + 88 x_4 * x_10 + 140 x_4 * x_11 + 36 x_4 * x_12
   + 8 x_4 * x_13 + 160 x_4 * x_14 + 136 x_4 * x_16 + 112 x_4 * x_18
   + 104 x_4 * x_21 + 28 x_4 * x_24 + 200 x_4 * x_26 + 28 x_4 * x_27
   + 96 x_4 * x_28 + 120 x_4 * x_29 + 148 x_4 * x_30 + 116 x_4 * x_32
   + 180 x_4 * x_33 + 108 x_4 * x_35 + 144 x_4 * x_39 + 48 x_4 * x_41
   + 108 x_4 * x_42 + 108 x_4 * x_43 + 20 x_4 * x_44 + 28 x_4 * x_45
   + 12 x_4 * x_47 + 96 x_4 * x_48 + 32 x_4 * x_49 + 132 x_5 * x_6
   + 20 x_5 * x_9 + 64 x_5 * x_10 + 120 x_5 * x_12 + 100 x_5 * x_13
   + 116 x_5 * x_14 + 96 x_5 * x_15 + 32 x_5 * x_17 + 32 x_5 * x_19
   + 48 x_5 * x_20 + 16 x_5 * x_21 + 140 x_5 * x_22 + 120 x_5 * x_23
   + 116 x_5 * x_24 + 80 x_5 * x_25 + 152 x_5 * x_26 + 128 x_5 * x_27
   + 120 x_5 * x_29 + 100 x_5 * x_30 + 60 x_5 * x_31 + 192 x_5 * x_32
   + 168 x_5 * x_33 + 124 x_5 * x_34 + 56 x_5 * x_35 + 112 x_5 * x_36
   + 120 x_5 * x_37 + 104 x_5 * x_38 + 8 x_5 * x_40 + 56 x_5 * x_42
   + 132 x_5 * x_44 + 72 x_5 * x_45 + 184 x_5 * x_46 + 64 x_5 * x_47
   + 180 x_5 * x_48 + 168 x_5 * x_50 + 188 x_6 * x_7 + 88 x_6 * x_8
   + 100 x_6 * x_10 + 120 x_6 * x_11 + 196 x_6 * x_12 + 92 x_6 * x_13
   + 124 x_6 * x_14 + 60 x_6 * x_16 + 136 x_6 * x_18 + 188 x_6 * x_19
   + 200 x_6 * x_21 + 88 x_6 * x_22 + 136 x_6 * x_23 + 148 x_6 * x_26
   + 76 x_6 * x_27 + 60 x_6 * x_28 + 100 x_6 * x_29 + 152 x_6 * x_30
   + 152 x_6 * x_32 + 32 x_6 * x_33 + 20 x_6 * x_35 + 28 x_6 * x_37
   + 180 x_6 * x_38 + 80 x_6 * x_39 + 172 x_6 * x_40 + 68 x_6 * x_41
   + 16 x_6 * x_43 + 8 x_6 * x_44 + 132 x_6 * x_47 + 140 x_7 * x_8
   + 176 x_7 * x_10 + 44 x_7 * x_11 + 112 x_7 * x_12 + 200 x_7 * x_13
   + 144 x_7 * x_14 + 120 x_7 * x_15 + 128 x_7 * x_16 + 124 x_7 * x_17
   + 156 x_7 * x_18 + 36 x_7 * x_19 + 8 x_7 * x_21 + 40 x_7 * x_22
   + 164 x_7 * x_23 + 128 x_7 * x_24 + 48 x_7 * x_25 + 192 x_7 * x_26
   + 4 x_7 * x_27 + 60 x_7 * x_28 + 120 x_7 * x_29 + 156 x_7 * x_30
   + 172 x_7 * x_31 + 148 x_7 * x_32 + 192 x_7 * x_33 + 88 x_7 * x_34
   + 64 x_7 * x_35 + 112 x_7 * x_36 + 48 x_7 * x_37 + 200 x_7 * x_38
   + 80 x_7 * x_39 + 80 x_7 * x_40 + 192 x_7 * x_42 + 124 x_7 * x_43
   + 108 x_7 * x_44 + 56 x_7 * x_45 + 160 x_7 * x_46 + 16 x_7 * x_48
   + 116 x_7 * x_49 + 24 x_7 * x_50 + 116 x_8 * x_9 + 56 x_8 * x_10
   + 36 x_8 * x_11 + 56 x_8 * x_12 + 12 x_8 * x_13 + 48 x_8 * x_14
   + 184 x_8 * x_15 + 24 x_8 * x_17 + 140 x_8 * x_18 + 144 x_8 * x_19
   + 120 x_8 * x_20 + 20 x_8 * x_21 + 52 x_8 * x_22 + 200 x_8 * x_23
   + 156 x_8 * x_24 + 188 x_8 * x_26 + 92 x_8 * x_27 + 120 x_8 * x_28
   + 44 x_8 * x_30 + 84 x_8 * x_31 + 60 x_8 * x_32 + 40 x_8 * x_33
   + 48 x_8 * x_34 + 56 x_8 * x_35 + 124 x_8 * x_37 + 188 x_8 * x_38
   + 172 x_8 * x_39 + 84 x_8 * x_40 + 152 x_8 * x_42 + 172 x_8 * x_43
   + 168 x_8 * x_44 + 172 x_8 * x_45 + 72 x_8 * x_47 + 20 x_8 * x_48
   + 136 x_8 * x_50 + 160 x_9 * x_10 + 88 x_9 * x_12 + 84 x_9 * x_13
   + 200 x_9 * x_14 + 56 x_9 * x_15 + 168 x_9 * x_16 + 12 x_9 * x_17
   + 92 x_9 * x_18 + 128 x_9 * x_19 + 172 x_9 * x_20 + 12 x_9 * x_21
   + 140 x_9 * x_24 + 48 x_9 * x_25 + 136 x_9 * x_27 + 108 x_9 * x_29
   + 128 x_9 * x_31 + 196 x_9 * x_34 + 160 x_9 * x_35 + 92 x_9 * x_36
   + 128 x_9 * x_38 + 24 x_9 * x_39 + 32 x_9 * x_40 + 184 x_9 * x_41
   + 72 x_9 * x_43 + 52 x_9 * x_44 + 112 x_9 * x_46 + 116 x_9 * x_48
   + 104 x_9 * x_49 + 124 x_9 * x_50 + 28 x_10 * x_12 + 132 x_10 * x_13
   + 104 x_10 * x_15 + 16 x_10 * x_16 + 124 x_10 * x_18 + 180 x_10 * x_19
   + 36 x_10 * x_20 + 152 x_10 * x_21 + 96 x_10 * x_22 + 172 x_10 * x_23
   + 12 x_10 * x_24 + 96 x_10 * x_25 + 180 x_10 * x_27 + 64 x_10 * x_30
   + 132 x_10 * x_31 + 92 x_10 * x_32 + 4 x_10 * x_33 + 88 x_10 * x_34
   + 200 x_10 * x_35 + 112 x_10 * x_38 + 180 x_10 * x_39 + 20 x_10 * x_41
   + 8 x_10 * x_43 + 112 x_10 * x_44 + 80 x_10 * x_46 + 36 x_10 * x_47
   + 24 x_10 * x_49 + 96 x_10 * x_50 + 64 x_11 * x_12 + 196 x_11 * x_13
   + 48 x_11 * x_14 + 48 x_11 * x_15 + 32 x_11 * x_16 + 36 x_11 * x_17
   + 124 x_11 * x_18 + 100 x_11 * x_19 + 80 x_11 * x_20 + 144 x_11 * x_22
   + 8 x_11 * x_23 + 144 x_11 * x_25 + 124 x_11 * x_26 + 88 x_11 * x_27
   + 60 x_11 * x_28 + 80 x_11 * x_29 + 136 x_11 * x_30 + 84 x_11 * x_31
   + 84 x_11 * x_32 + 156 x_11 * x_35 + 92 x_11 * x_36 + 116 x_11 * x_38
   + 44 x_11 * x_39 + 148 x_11 * x_40 + 160 x_11 * x_43 + 60 x_11 * x_44
   + 76 x_11 * x_45 + 72 x_11 * x_46 + 92 x_11 * x_47 + 156 x_11 * x_48
   + 188 x_11 * x_49 + 16 x_11 * x_50 + 188 x_12 * x_13 + 128 x_12 * x_14
   + 200 x_12 * x_15 + 72 x_12 * x_17 + 192 x_12 * x_18 + 164 x_12 * x_19
   + 96 x_12 * x_20 + 128 x_12 * x_21 + 152 x_12 * x_22 + 136 x_12 * x_23
   + 64 x_12 * x_25 + 36 x_12 * x_26 + 200 x_12 * x_27 + 172 x_12 * x_29
   + 72 x_12 * x_31 + 52 x_12 * x_32 + 88 x_12 * x_34 + 116 x_12 * x_36
   + 68 x_12 * x_37 + 8 x_12 * x_38 + 140 x_12 * x_39 + 116 x_12 * x_40
   + 40 x_12 * x_41 + 112 x_12 * x_42 + 40 x_12 * x_43 + 44 x_12 * x_45
   + 176 x_12 * x_47 + 4 x_12 * x_49 + 12 x_12 * x_50 + 184 x_13 * x_15
   + 144 x_13 * x_17 + 84 x_13 * x_18 + 48 x_13 * x_19 + 164 x_13 * x_20
   + 8 x_13 * x_21 + 184 x_13 * x_22 + 188 x_13 * x_23 + 120 x_13 * x_24
   + 140 x_13 * x_25 + 84 x_13 * x_26 + 180 x_13 * x_27 + 172 x_13 * x_28
   + 36 x_13 * x_29 + 88 x_13 * x_30 + 132 x_13 * x_31 + 148 x_13 * x_32
   + 40 x_13 * x_33 + 184 x_13 * x_35 + 76 x_13 * x_36 + 36 x_13 * x_37
   + 100 x_13 * x_38 + 88 x_13 * x_40 + 136 x_13 * x_41 + 16 x_13 * x_43
   + 28 x_13 * x_44 + 180 x_13 * x_46 + 152 x_13 * x_50 + 40 x_14 * x_15
   + 68 x_14 * x_16 + 144 x_14 * x_17 + 52 x_14 * x_19 + 36 x_14 * x_20
   + 16 x_14 * x_21 + 100 x_14 * x_23 + 148 x_14 * x_24 + 196 x_14 * x_25
   + 36 x_14 * x_26 + 36 x_14 * x_27 + 100 x_14 * x_28 + 120 x_14 * x_30
   + 192 x_14 * x_31 + 20 x_14 * x_32 + 76 x_14 * x_33 + 144 x_14 * x_37
   + 164 x_14 * x_40 + 80 x_14 * x_41 + 4 x_14 * x_43 + 144 x_14 * x_44
   + 128 x_14 * x_45 + 76 x_14 * x_47 + 188 x_14 * x_49 + 120 x_14 * x_50
   + 72 x_15 * x_16 + 72 x_15 * x_17 + 120 x_15 * x_19 + 64 x_15 * x_21
   + 52 x_15 * x_23 + 176 x_15 * x_24 + 180 x_15 * x_25 + 48 x_15 * x_26
   + 152 x_15 * x_27 + 76 x_15 * x_29 + 92 x_15 * x_32 + 20 x_15 * x_33
   + 20 x_15 * x_34 + 16 x_15 * x_36 + 180 x_15 * x_37 + 188 x_15 * x_38
   + 76 x_15 * x_39 + 104 x_15 * x_41 + 144 x_15 * x_42 + 92 x_15 * x_44
   + 172 x_15 * x_45 + 176 x_15 * x_46 + 60 x_15 * x_47 + 156 x_15 * x_48
   + 116 x_15 * x_49 + 96 x_15 * x_50 + 128 x_16 * x_17 + 104 x_16 * x_18
   + 64 x_16 * x_20 + 160 x_16 * x_22 + 92 x_16 * x_23 + 100 x_16 * x_24
   + 148 x_16 * x_25 + 148 x_16 * x_27 + 200 x_16 * x_28 + 68 x_16 * x_29
   + 176 x_16 * x_32 + 48 x_16 * x_34 + 184 x_16 * x_35 + 60 x_16 * x_36
   + 192 x_16 * x_37 + 180 x_16 * x_39 + 200 x_16 * x_42 + 40 x_16 * x_44
   + 164 x_16 * x_45 + 24 x_16 * x_47 + 168 x_16 * x_48 + 8 x_16 * x_49
   + 112 x_17 * x_18 + 140 x_17 * x_19 + 180 x_17 * x_21 + 68 x_17 * x_22
   + 192 x_17 * x_23 + 104 x_17 * x_26 + 40 x_17 * x_27 + 56 x_17 * x_28
   + 116 x_17 * x_29 + 24 x_17 * x_30 + 80 x_17 * x_31 + 52 x_17 * x_32
   + 184 x_17 * x_34 + 36 x_17 * x_35 + 124 x_17 * x_36 + 160 x_17 * x_40
   + 32 x_17 * x_41 + 100 x_17 * x_43 + 4 x_17 * x_44 + 40 x_17 * x_45
   + 152 x_17 * x_47 + 72 x_17 * x_48 + 152 x_17 * x_49 + 52 x_17 * x_50
   + 108 x_18 * x_19 + 140 x_18 * x_20 + 104 x_18 * x_21 + 8 x_18 * x_22
   + 56 x_18 * x_23 + 164 x_18 * x_25 + 68 x_18 * x_26 + 80 x_18 * x_28
   + 80 x_18 * x_29 + 72 x_18 * x_30 + 112 x_18 * x_32 + 52 x_18 * x_33
   + 112 x_18 * x_35 + 116 x_18 * x_36 + 36 x_18 * x_37 + 104 x_18 * x_38
   + 96 x_18 * x_39 + 80 x_18 * x_40 + 148 x_18 * x_41 + 12 x_18 * x_42
   + 144 x_18 * x_43 + 152 x_18 * x_46 + 24 x_18 * x_48 + 36 x_18 * x_49
   + 12 x_18 * x_50 + 128 x_19 * x_20 + 188 x_19 * x_21 + 172 x_19 * x_22
   + 112 x_19 * x_24 + 40 x_19 * x_25 + 96 x_19 * x_26 + 52 x_19 * x_27
   + 108 x_19 * x_29 + 4 x_19 * x_30 + 168 x_19 * x_31 + 84 x_19 * x_32
   + 88 x_19 * x_33 + 76 x_19 * x_34 + 132 x_19 * x_35 + 148 x_19 * x_38
   + 36 x_19 * x_39 + 76 x_19 * x_42 + 172 x_19 * x_43 + 148 x_19 * x_44
   + 8 x_19 * x_46 + 124 x_19 * x_47 + 152 x_19 * x_48 + 112 x_20 * x_22
   + 124 x_20 * x_23 + 44 x_20 * x_24 + 16 x_20 * x_25 + 84 x_20 * x_26
   + 112 x_20 * x_27 + 112 x_20 * x_28 + 8 x_20 * x_30 + 164 x_20 * x_31
   + 132 x_20 * x_32 + 160 x_20 * x_34 + 24 x_20 * x_35 + 52 x_20 * x_36
   + 152 x_20 * x_37 + 160 x_20 * x_39 + 136 x_20 * x_40 + 44 x_20 * x_41
   + 52 x_20 * x_43 + 120 x_20 * x_44 + 196 x_20 * x_45 + 112 x_20 * x_46
   + 56 x_20 * x_47 + 164 x_20 * x_48 + 4 x_21 * x_23 + 144 x_21 * x_24
   + 72 x_21 * x_25 + 4 x_21 * x_27 + 12 x_21 * x_28 + 64 x_21 * x_30
   + 180 x_21 * x_32 + 40 x_21 * x_34 + 96 x_21 * x_35 + 84 x_21 * x_36
   + 44 x_21 * x_37 + 180 x_21 * x_38 + 96 x_21 * x_39 + 176 x_21 * x_42
   + 28 x_21 * x_44 + 180 x_21 * x_45 + 24 x_21 * x_46 + 196 x_21 * x_47
   + 136 x_21 * x_48 + 36 x_21 * x_49 + 40 x_21 * x_50 + 156 x_22 * x_24
   + 40 x_22 * x_25 + 28 x_22 * x_26 + 100 x_22 * x_27 + 148 x_22 * x_28
   + 104 x_22 * x_29 + 128 x_22 * x_30 + 32 x_22 * x_31 + 120 x_22 * x_32
   + 16 x_22 * x_34 + 8 x_22 * x_35 + 136 x_22 * x_37 + 72 x_22 * x_38
   + 88 x_22 * x_39 + 20 x_22 * x_40 + 192 x_22 * x_41 + 40 x_22 * x_42
   + 68 x_22 * x_45 + 136 x_22 * x_47 + 76 x_22 * x_48 + 176 x_23 * x_25
   + 68 x_23 * x_26 + 64 x_23 * x_27 + 36 x_23 * x_28 + 60 x_23 * x_29
   + 168 x_23 * x_31 + 144 x_23 * x_32 + 104 x_23 * x_33 + 188 x_23 * x_34
   + 172 x_23 * x_35 + 24 x_23 * x_36 + 120 x_23 * x_37 + 32 x_23 * x_38
   + 136 x_23 * x_39 + 52 x_23 * x_40 + 180 x_23 * x_42 + 4 x_23 * x_44
   + 192 x_23 * x_45 + 152 x_23 * x_46 + 120 x_23 * x_48 + 44 x_23 * x_49
   + 64 x_23 * x_50 + 116 x_24 * x_25 + 136 x_24 * x_26 + 72 x_24 * x_27
   + 44 x_24 * x_28 + 52 x_24 * x_29 + 108 x_24 * x_30 + 160 x_24 * x_31
   + 132 x_24 * x_32 + 160 x_24 * x_33 + 188 x_24 * x_34 + 92 x_24 * x_35
   + 100 x_24 * x_37 + 116 x_24 * x_38 + 188 x_24 * x_40 + 40 x_24 * x_41
   + 100 x_24 * x_42 + 116 x_24 * x_44 + 108 x_24 * x_45 + 100 x_24 * x_46
   + 144 x_24 * x_47 + 80 x_24 * x_48 + 136 x_24 * x_49 + 148 x_25 * x_27
   + 28 x_25 * x_28 + 52 x_25 * x_31 + 184 x_25 * x_33 + 104 x_25 * x_36
   + 200 x_25 * x_38 + 120 x_25 * x_39 + 132 x_25 * x_40 + 156 x_25 * x_41
   + 92 x_25 * x_42 + 152 x_25 * x_45 + 4 x_25 * x_47 + 48 x_25 * x_48
   + 12 x_25 * x_49 + 16 x_25 * x_50 + 176 x_26 * x_28 + 112 x_26 * x_29
   + 96 x_26 * x_30 + 28 x_26 * x_31 + 200 x_26 * x_32 + 4 x_26 * x_34
   + 48 x_26 * x_36 + 16 x_26 * x_38 + 44 x_26 * x_41 + 92 x_26 * x_43
   + 16 x_26 * x_44 + 32 x_26 * x_45 + 116 x_26 * x_46 + 52 x_26 * x_47
   + 80 x_26 * x_48 + 16 x_26 * x_49 + 84 x_26 * x_50 + 92 x_27 * x_32
   + 192 x_27 * x_33 + 148 x_27 * x_34 + 104 x_27 * x_38 + 56 x_27 * x_39
   + 132 x_27 * x_40 + 192 x_27 * x_42 + 44 x_27 * x_43 + 20 x_27 * x_44
   + 104 x_27 * x_46 + 48 x_27 * x_47 + 96 x_27 * x_48 + 200 x_27 * x_49
   + 180 x_27 * x_50 + 188 x_28 * x_29 + 188 x_28 * x_30 + 128 x_28 * x_31
   + 80 x_28 * x_32 + 172 x_28 * x_33 + 52 x_28 * x_35 + 112 x_28 * x_36
   + 116 x_28 * x_37 + 4 x_28 * x_40 + 52 x_28 * x_41 + 156 x_28 * x_42
   + 136 x_28 * x_45 + 132 x_28 * x_46 + 32 x_28 * x_47 + 8 x_28 * x_49
   + 128 x_29 * x_32 + 12 x_29 * x_33 + 56 x_29 * x_34 + 140 x_29 * x_35
   + 16 x_29 * x_36 + 8 x_29 * x_37 + 60 x_29 * x_38 + 112 x_29 * x_39
   + 100 x_29 * x_40 + 200 x_29 * x_41 + 184 x_29 * x_43 + 164 x_29 * x_45
   + 32 x_29 * x_46 + 168 x_29 * x_47 + 68 x_29 * x_48 + 100 x_29 * x_50
   + 168 x_30 * x_31 + 172 x_30 * x_33 + 136 x_30 * x_35 + 20 x_30 * x_37
   + 120 x_30 * x_39 + 116 x_30 * x_40 + 80 x_30 * x_41 + 128 x_30 * x_43
   + 96 x_30 * x_44 + 44 x_30 * x_45 + 160 x_30 * x_46 + 80 x_30 * x_47
   + 128 x_30 * x_50 + 68 x_31 * x_34 + 20 x_31 * x_37 + 196 x_31 * x_38
   + 24 x_31 * x_39 + 180 x_31 * x_41 + 164 x_31 * x_42 + 68 x_31 * x_43
   + 88 x_31 * x_45 + 196 x_31 * x_46 + 32 x_31 * x_48 + 108 x_31 * x_49
   + 24 x_31 * x_50 + 28 x_32 * x_33 + 148 x_32 * x_34 + 88 x_32 * x_35
   + 12 x_32 * x_36 + 68 x_32 * x_37 + 180 x_32 * x_38 + 24 x_32 * x_39
   + 132 x_32 * x_40 + 192 x_32 * x_41 + 124 x_32 * x_42 + 120 x_32 * x_43
   + 196 x_32 * x_45 + 160 x_32 * x_46 + 88 x_32 * x_47 + 152 x_32 * x_48
   + 84 x_32 * x_49 + 160 x_32 * x_50 + 124 x_33 * x_35 + 68 x_33 * x_36
   + 200 x_33 * x_39 + 144 x_33 * x_40 + 60 x_33 * x_41 + 180 x_33 * x_42
   + 36 x_33 * x_44 + 40 x_33 * x_45 + 64 x_33 * x_46 + 100 x_33 * x_47
   + 36 x_33 * x_49 + 12 x_33 * x_50 + 120 x_34 * x_35 + 20 x_34 * x_36
   + 132 x_34 * x_37 + 148 x_34 * x_38 + 56 x_34 * x_40 + 132 x_34 * x_41
   + 40 x_34 * x_42 + 108 x_34 * x_43 + 36 x_34 * x_46 + 136 x_34 * x_47
   + 56 x_34 * x_49 + 184 x_35 * x_36 + 28 x_35 * x_40 + 160 x_35 * x_43
   + 96 x_35 * x_45 + 160 x_35 * x_46 + 144 x_35 * x_48 + 112 x_35 * x_50
   + 120 x_36 * x_37 + 92 x_36 * x_39 + 28 x_36 * x_40 + 152 x_36 * x_42
   + 148 x_36 * x_43 + 64 x_36 * x_45 + 116 x_36 * x_46 + 120 x_36 * x_47
   + 72 x_36 * x_48 + 28 x_36 * x_49 + 156 x_36 * x_50 + 32 x_37 * x_38
   + 192 x_37 * x_39 + 92 x_37 * x_40 + 184 x_37 * x_42 + 88 x_37 * x_43
   + 196 x_37 * x_46 + 124 x_37 * x_47 + 144 x_37 * x_48 + 148 x_37 * x_49
   + 32 x_37 * x_50 + 100 x_38 * x_39 + 148 x_38 * x_41 + 96 x_38 * x_43
   + 64 x_38 * x_44 + 116 x_38 * x_45 + 100 x_38 * x_47 + 8 x_38 * x_48
   + 36 x_38 * x_49 + 200 x_38 * x_50 + 100 x_39 * x_40 + 128 x_39 * x_41
   + 80 x_39 * x_42 + 40 x_39 * x_44 + 144 x_39 * x_45 + 28 x_39 * x_47
   + 120 x_39 * x_48 + 12 x_39 * x_50 + 176 x_40 * x_41 + 48 x_40 * x_42
   + 160 x_40 * x_43 + 120 x_40 * x_44 + 120 x_40 * x_45 + 32 x_40 * x_46
   + 136 x_40 * x_48 + 116 x_40 * x_49 + 164 x_40 * x_50 + 88 x_41 * x_42
   + 72 x_41 * x_43 + 96 x_41 * x_44 + 36 x_41 * x_45 + 8 x_41 * x_46
   + 68 x_41 * x_47 + 68 x_41 * x_48 + 48 x_41 * x_49 + 96 x_42 * x_43
   + 132 x_42 * x_44 + 40 x_42 * x_45 + 12 x_42 * x_46 + 120 x_42 * x_48
   + 68 x_42 * x_49 + 108 x_42 * x_50 + 64 x_43 * x_44 + 64 x_43 * x_45
   + 48 x_43 * x_48 + 64 x_43 * x_49 + 112 x_44 * x_45 + 24 x_44 * x_46
   + 24 x_44 * x_47 + 16 x_44 * x_48 + 140 x_44 * x_49 + 60 x_45 * x_46
   + 104 x_45 * x_47 + 192 x_45 * x_48 + 176 x_45 * x_49 + 40 x_45 * x_50
   + 192 x_46 * x_47 + 136 x_46 * x_49 + 20 x_46 * x_50 + 76 x_47 * x_49
   + 96 x_47 * x_50 + 44 x_48 * x_49 + 136 x_48 * x_50 ] / 2 
Subject To
 R0: 11 x_1 + 4 x_2 + 6 x_3 + 7 x_4 + 16 x_5 + 8 x_6 + 5 x_7 + 22 x_8
   + 6 x_9 + 25 x_10 + 16 x_11 + 10 x_12 + 17 x_13 + 6 x_14 + 15 x_15
   + 14 x_16 + 6 x_17 + 15 x_18 + 6 x_19 + 10 x_20 + 9 x_21 + 2 x_22
   + 24 x_23 + 2 x_24 + 3 x_25 + 7 x_26 + 7 x_27 + 18 x_28 + 13 x_29
   + 9 x_30 + 5 x_31 + 10 x_32 + 21 x_33 + 12 x_34 + x_35 + 25 x_36 + x_37
   + 5 x_38 + 16 x_39 + 17 x_40 + 7 x_41 + 11 x_42 + 2 x_43 + 2 x_44
   + 8 x_45 + 23 x_46 + 13 x_47 + 2 x_48 + 10 x_49 + 13 x_50 <= 479
Bounds
Binaries
 x_1 x_2 x_3 x_4 x_5 x_6 x_7 x_8 x_9 x_10 x_11 x_12 x_13 x_14 x_15 x_16
 x_17 x_18 x_19 x_20 x_21 x_22 x_23 x_24 x_25 x_26 x_27 x_28 x_29 x_30 x_31
 x_32 x_33 x_34 x_35 x_36 x_37 x_38 x_39 x_40 x_41 x_42 x_43 x_44 x_45 x_46
 x_47 x_48 x_49 x_50
End
